(set-logic QF_S)
(declare-fun var_0xINPUT_48522 () String)
(assert (and (= (len var_0xINPUT_48522) 0) (= (len var_0xINPUT_48522) 0) (not (= var_0xINPUT_48522 "pVEECEXk2p"))))
(check-sat var_0xINPUT_48522)